405
Lattice="10.38043510 0.0 0.0 0.0 8.95563940 0.0 0.0 0.0 65.58353000" Properties=species:S:1:pos:R:3 Equilibrated sandwich structure: 10A_alpha | Source: alpha_sandwich/10A_alpha/piston/traj_npzt_refine.lammpstrj | Equilibration phase: piston production run (last step) | MD step: 4000000 | Stoichiometry: H126O207Si72 (405 atoms) | Slab thickness: 50.58 A, Vacuum buffer: 15.0 A, Total Lz: 65.58 A
H     10.2780000000     1.0718400000     0.5017100000
H      2.2082200000     2.4327000000     0.8758100000
H      2.4878300000     5.5457300000     0.5000000000
H      9.9899600000     6.9024000000     0.8819300000
H      0.1846850000     1.0427900000    17.7128300000
H      3.1004100000     2.4515200000    17.4476300000
H      2.9234700000     5.6122700000    17.8629300000
H      5.7795400000     6.9508300000    17.3934300000
H      5.0878300000     1.0718400000     0.5017100000
H      7.3984400000     2.4327000000     0.8758100000
H      7.6780400000     5.5457300000     0.5000000000
H      4.7997500000     6.9024000000     0.8819300000
H      5.3749000000     1.0427900000    17.7128300000
H      8.2906300000     2.4515200000    17.4476300000
H      8.1136900000     5.6122700000    17.8629300000
H      0.5893220000     6.9508300000    17.3934300000
H     10.2780000000     1.0718400000    51.0818300000
H      2.2082200000     2.4327000000    50.7077300000
H      2.4878300000     5.5457300000    51.0835300000
H      9.9899600000     6.9024000000    50.7016300000
H      0.1846850000     1.0427900000    33.8707300000
H      3.1004100000     2.4515200000    34.1359300000
H      2.9234700000     5.6122700000    33.7206300000
H      5.7795400000     6.9508300000    34.1901300000
H      5.0878300000     1.0718400000    51.0818300000
H      7.3984400000     2.4327000000    50.7077300000
H      7.6780400000     5.5457300000    51.0835300000
H      4.7997500000     6.9024000000    50.7016300000
H      5.3749000000     1.0427900000    33.8707300000
H      8.2906300000     2.4515200000    34.1359300000
H      8.1136900000     5.6122700000    33.7206300000
H      0.5893220000     6.9508300000    34.1901300000
O      4.3737200000     3.6022700000     2.5968000000
O      0.0147583000     1.9647200000     0.8611300000
O      1.0158800000     3.6424900000     4.4871100000
O      3.5510700000     1.0607300000     2.5692400000
O      1.7206600000     1.0615700000     4.4684400000
O      3.1186000000     2.6572200000     0.6125600000
O      1.7790300000     8.0786000000     2.5939300000
O      2.6068800000     6.4378600000     0.8607100000
O      3.6140500000     8.1230200000     4.4819100000
O      0.9589280000     5.5366000000     2.5747900000
O      4.3169100000     5.5412600000     4.4719800000
O      0.5191620000     7.1273300000     0.6160300000
O      4.3347500000     3.6318400000     8.2139600000
O      0.0794719000     2.0236000000     6.3494200000
O      1.0158100000     3.6294200000    10.0783300000
O      3.6020900000     1.0662200000     8.2195800000
O      1.7464400000     1.0629700000    10.0975300000
O      2.6747000000     2.6615700000     6.3420200000
O      1.7396700000     8.1087900000     8.2215900000
O      2.6735200000     6.5104600000     6.3467600000
O      3.6132500000     8.1088900000    10.0856300000
O      1.0103700000     5.5420100000     8.2119700000
O      4.3448900000     5.5425900000    10.0871300000
O      0.0785522000     7.1462800000     6.3441000000
O      4.3296700000     3.6734700000    13.8160300000
O      0.0876210000     2.0459900000    11.9640300000
O      0.9688520000     3.6148000000    15.7073300000
O      3.6251400000     1.0919300000    13.8358300000
O      1.7864500000     1.0711800000    15.7269300000
O      2.6824700000     2.6839600000    11.9532300000
O      1.7473400000     8.1364700000    13.8122300000
O      2.6923800000     6.5106600000    11.9611300000
O      3.5793300000     8.1080500000    15.7037300000
O      1.0439900000     5.5550700000    13.8348300000
O      4.4045000000     5.5685000000    15.7315300000
O      0.0967972000     7.1490300000    11.9514300000
O      0.1033430000     1.9622200000    17.4127300000
O      2.1827400000     2.6468200000    17.7062300000
O      2.7798400000     6.4822400000    17.4597300000
O      4.8737900000     7.1816900000    17.6674300000
O      9.5639400000     3.6022700000     2.5968000000
O      5.2049800000     1.9647200000     0.8611300000
O      6.2061000000     3.6424900000     4.4871100000
O      8.7412900000     1.0607300000     2.5692300000
O      6.9108800000     1.0615700000     4.4684400000
O      8.3088200000     2.6572200000     0.6125600000
O      6.9692500000     8.0786000000     2.5939300000
O      7.7971000000     6.4378600000     0.8607100000
O      8.8042700000     8.1230200000     4.4819100000
O      6.1491500000     5.5366000000     2.5747900000
O      9.5071300000     5.5412600000     4.4719800000
O      5.7093800000     7.1273300000     0.6160300000
O      9.5249700000     3.6318400000     8.2139600000
O      5.2696900000     2.0236000000     6.3494200000
O      6.2060300000     3.6294200000    10.0783300000
O      8.7923100000     1.0662200000     8.2195800000
O      6.9366600000     1.0629700000    10.0975300000
O      7.8649200000     2.6615700000     6.3420200000
O      6.9298800000     8.1087900000     8.2215900000
O      7.8637400000     6.5104600000     6.3467600000
O      8.8034700000     8.1088900000    10.0856300000
O      6.2005900000     5.5420100000     8.2119700000
O      9.5351100000     5.5425900000    10.0871300000
O      5.2687700000     7.1462800000     6.3441000000
O      9.5198800000     3.6734600000    13.8160300000
O      5.2778400000     2.0459900000    11.9640300000
O      6.1590700000     3.6148000000    15.7073300000
O      8.8153600000     1.0919300000    13.8358300000
O      6.9766700000     1.0711800000    15.7269300000
O      7.8726900000     2.6839600000    11.9532300000
O      6.9375500000     8.1364600000    13.8122300000
O      7.8825900000     6.5106600000    11.9611300000
O      8.7695500000     8.1080500000    15.7037300000
O      6.2342100000     5.5550700000    13.8348300000
O      9.5947200000     5.5685000000    15.7315300000
O      5.2870100000     7.1490300000    11.9514300000
O      5.2935600000     1.9622200000    17.4127300000
O      7.3729600000     2.6468200000    17.7062300000
O      7.9700600000     6.4822400000    17.4597300000
O     10.0640000000     7.1816900000    17.6674300000
O      4.3737200000     3.6022700000    48.9867300000
O      0.0147585000     1.9647200000    50.7224300000
O      1.0158800000     3.6424900000    47.0964300000
O      3.5510700000     1.0607300000    49.0143300000
O      1.7206600000     1.0615700000    47.1150300000
O      3.1186000000     2.6572200000    50.9709300000
O      1.7790300000     8.0786000000    48.9896300000
O      2.6068800000     6.4378600000    50.7228300000
O      3.6140500000     8.1230200000    47.1016300000
O      0.9589280000     5.5366000000    49.0087300000
O      4.3169100000     5.5412600000    47.1115300000
O      0.5191620000     7.1273300000    50.9675300000
O      4.3347500000     3.6318400000    43.3695300000
O      0.0794719000     2.0236000000    45.2341300000
O      1.0158100000     3.6294200000    41.5052300000
O      3.6020900000     1.0662200000    43.3639300000
O      1.7464400000     1.0629700000    41.4860300000
O      2.6747000000     2.6615700000    45.2415300000
O      1.7396700000     8.1087900000    43.3619300000
O      2.6735200000     6.5104600000    45.2367300000
O      3.6132500000     8.1088900000    41.4978300000
O      1.0103700000     5.5420100000    43.3715300000
O      4.3448900000     5.5425900000    41.4963300000
O      0.0785525000     7.1462800000    45.2394300000
O      4.3296700000     3.6734700000    37.7674300000
O      0.0876211000     2.0459900000    39.6195300000
O      0.9688520000     3.6148000000    35.8762300000
O      3.6251400000     1.0919300000    37.7477300000
O      1.7864500000     1.0711800000    35.8566300000
O      2.6824700000     2.6839600000    39.6303300000
O      1.7473400000     8.1364700000    37.7713300000
O      2.6923800000     6.5106600000    39.6223300000
O      3.5793300000     8.1080500000    35.8798300000
O      1.0439900000     5.5550700000    37.7486300000
O      4.4045000000     5.5685000000    35.8520300000
O      0.0967970000     7.1490300000    39.6320300000
O      0.1033430000     1.9622200000    34.1707300000
O      2.1827400000     2.6468200000    33.8773300000
O      2.7798400000     6.4822400000    34.1238300000
O      4.8737900000     7.1816900000    33.9161300000
O      9.5639400000     3.6022700000    48.9867300000
O      5.2049800000     1.9647200000    50.7224300000
O      6.2061000000     3.6424900000    47.0964300000
O      8.7412900000     1.0607300000    49.0143300000
O      6.9108800000     1.0615700000    47.1150300000
O      8.3088200000     2.6572200000    50.9709300000
O      6.9692500000     8.0786000000    48.9896300000
O      7.7971000000     6.4378600000    50.7228300000
O      8.8042700000     8.1230200000    47.1016300000
O      6.1491500000     5.5366000000    49.0087300000
O      9.5071300000     5.5412600000    47.1115300000
O      5.7093800000     7.1273300000    50.9675300000
O      9.5249700000     3.6318400000    43.3695300000
O      5.2696900000     2.0236000000    45.2341300000
O      6.2060300000     3.6294200000    41.5052300000
O      8.7923100000     1.0662200000    43.3639300000
O      6.9366600000     1.0629700000    41.4860300000
O      7.8649200000     2.6615700000    45.2415300000
O      6.9298800000     8.1087900000    43.3619300000
O      7.8637400000     6.5104600000    45.2367300000
O      8.8034700000     8.1088900000    41.4978300000
O      6.2005900000     5.5420100000    43.3715300000
O      9.5351100000     5.5425900000    41.4963300000
O      5.2687700000     7.1462800000    45.2394300000
O      9.5198800000     3.6734600000    37.7674300000
O      5.2778400000     2.0459900000    39.6195300000
O      6.1590700000     3.6148000000    35.8762300000
O      8.8153600000     1.0919300000    37.7477300000
O      6.9766700000     1.0711800000    35.8566300000
O      7.8726900000     2.6839600000    39.6303300000
O      6.9375500000     8.1364700000    37.7713300000
O      7.8825900000     6.5106600000    39.6223300000
O      8.7695500000     8.1080500000    35.8798300000
O      6.2342100000     5.5550700000    37.7486300000
O      9.5947200000     5.5685000000    35.8520300000
O      5.2870100000     7.1490300000    39.6320300000
O      5.2935600000     1.9622200000    34.1707300000
O      7.3729600000     2.6468200000    33.8773300000
O      7.9700600000     6.4822400000    34.1238300000
O     10.0640000000     7.1816900000    33.9161300000
Si     4.0500800000     2.3128900000     1.6605700000
Si     1.3732400000     2.3470000000     5.4113500000
Si     2.6641800000     0.1041150000     3.5441400000
Si     1.4539700000     6.7867800000     1.6615100000
Si     3.9693500000     6.8300100000     5.4104400000
Si     5.2591900000     4.5816300000     3.5485800000
Si     3.9702900000     2.3461700000     7.2802600000
Si     1.3835000000     2.3543800000    11.0240300000
Si     2.6742000000     0.1083740000     9.1564300000
Si     1.3752800000     6.8282200000     7.2802300000
Si     3.9857200000     6.8280300000    11.0221300000
Si     5.2707100000     4.5854500000     9.1477300000
Si     3.9787300000     2.3747300000    12.8929300000
Si     1.2725300000     2.3157500000    16.6372300000
Si     2.6860900000     0.1250220000    14.7536300000
Si     1.3939700000     6.8380600000    12.8905300000
Si     3.9220900000     6.8257700000    16.6420300000
Si     5.2831700000     4.6038700000    14.7570300000
Si     9.2403000000     2.3128900000     1.6605700000
Si     6.5634600000     2.3470000000     5.4113500000
Si     7.8544000000     0.1041150000     3.5441400000
Si     6.6441900000     6.7867800000     1.6615100000
Si     9.1595700000     6.8300100000     5.4104400000
Si     0.0689784000     4.5816300000     3.5485800000
Si     9.1605000000     2.3461700000     7.2802600000
Si     6.5737200000     2.3543800000    11.0240300000
Si     7.8644100000     0.1083740000     9.1564300000
Si     6.5654900000     6.8282200000     7.2802300000
Si     9.1759300000     6.8280300000    11.0221300000
Si     0.0804913000     4.5854500000     9.1477300000
Si     9.1689500000     2.3747300000    12.8929300000
Si     6.4627400000     2.3157500000    16.6372300000
Si     7.8763000000     0.1250220000    14.7536300000
Si     6.5841800000     6.8380700000    12.8905300000
Si     9.1123000000     6.8257700000    16.6420300000
Si     0.0929504000     4.6038700000    14.7570300000
Si     4.0500800000     2.3128900000    49.9229300000
Si     1.3732400000     2.3470000000    46.1721300000
Si     2.6641800000     0.1041150000    48.0393300000
Si     1.4539700000     6.7867800000    49.9220300000
Si     3.9693500000     6.8300100000    46.1730300000
Si     5.2591900000     4.5816300000    48.0349300000
Si     3.9702900000     2.3461700000    44.3032300000
Si     1.3835000000     2.3543800000    40.5594300000
Si     2.6742000000     0.1083740000    42.4271300000
Si     1.3752800000     6.8282200000    44.3033300000
Si     3.9857200000     6.8280300000    40.5614300000
Si     5.2707100000     4.5854500000    42.4358300000
Si     3.9787300000     2.3747300000    38.6906300000
Si     1.2725300000     2.3157500000    34.9462300000
Si     2.6860900000     0.1250220000    36.8299300000
Si     1.3939700000     6.8380600000    38.6929300000
Si     3.9220900000     6.8257700000    34.9415300000
Si     5.2831700000     4.6038700000    36.8265300000
Si     9.2403000000     2.3128900000    49.9229300000
Si     6.5634600000     2.3470000000    46.1721300000
Si     7.8544000000     0.1041150000    48.0393300000
Si     6.6441900000     6.7867800000    49.9220300000
Si     9.1595700000     6.8300100000    46.1731300000
Si     0.0689786000     4.5816300000    48.0349300000
Si     9.1605000000     2.3461700000    44.3032300000
Si     6.5737200000     2.3543800000    40.5594300000
Si     7.8644100000     0.1083740000    42.4271300000
Si     6.5654900000     6.8282200000    44.3033300000
Si     9.1759300000     6.8280300000    40.5614300000
Si     0.0804914000     4.5854500000    42.4358300000
Si     9.1689500000     2.3747300000    38.6906300000
Si     6.4627400000     2.3157500000    34.9462300000
Si     7.8763000000     0.1250220000    36.8299300000
Si     6.5841800000     6.8380700000    38.6929300000
Si     9.1123000000     6.8257700000    34.9415300000
Si     0.0929503000     4.6038700000    36.8265300000
O      0.8754245000     7.6364182000    27.9730300000
H     -0.0024755000     7.2192182000    28.2253300000
H      1.6684245000     6.9936182000    28.0997300000
O      0.9519245000     0.2257788000    20.2473300000
H     -0.0594755000     0.1792788000    20.0564300000
H      1.0802245000    -0.4797212000    21.0535300000
O      5.9588298000     8.5935800000    25.6471300000
H      5.2210298000     8.8485500000    26.2722300000
H      6.8124298000     8.3930600000    26.1074300000
O      9.4895245000     4.3347606000    18.9118300000
H     10.1119245000     3.6551606000    18.5817300000
H      8.8983245000     3.9328606000    19.5936300000
O      4.0400649000     0.6928006000    27.3400300000
H      4.0223649000     1.6683606000    27.0778300000
H      4.2321649000     0.7044606000    28.3492300000
O      7.7068649000     7.2900182000    27.3457300000
H      7.4487649000     6.4936182000    26.7510300000
H      8.4300649000     6.8756182000    27.9203300000
O      0.9680404000     7.3350576000    22.6772300000
H      1.0656404000     6.4891182000    22.1508300000
H      1.1143404000     6.9851576000    23.6123300000
O      4.6547200000     4.3394494000    18.9607300000
H      5.2238300000     3.6425494000    18.4857300000
H      4.6203500000     3.9611394000    19.9201300000
O      9.4785947000     5.5969576000    28.9499300000
H     10.3993947000     5.2686576000    28.9178300000
H      8.8388947000     4.8718576000    28.5562300000
H      0.6901298000     1.7459758000    21.1258300000
O      0.9601298000     2.7087758000    21.4254300000
H      1.3759298000     2.5198758000    22.3121300000
O      6.3870700000     2.1884212000    24.2781300000
H      7.3617700000     2.2612818000    24.1420300000
H      6.2184600000     1.2504818000    24.6026300000
O      8.5382947000     1.3327576000    30.6557300000
H      9.0140947000     0.4741970000    30.9279300000
H      8.8741947000     1.3209576000    29.6741300000
O      4.3203245000     4.0629212000    23.9098300000
H      5.0564245000     3.4056212000    23.9970300000
H      3.5427245000     3.4157212000    23.9038300000
O      3.7198404000     6.3591400000    25.5714300000
H      4.5652053000     5.7635800000    25.3929300000
H      3.9814404000     7.2569500000    25.1299300000
O      5.4526702000     3.3363594000    28.9614300000
H      5.8614702000     3.8863294000    29.6846300000
H      5.1775702000     2.4339694000    29.4030300000
O      6.5981298000     5.0620606000    25.7608300000
H      7.3088298000     5.0256606000    25.0265300000
H      6.9048947000     4.3894606000    26.4342300000
O      8.6805700000     5.2807788000    24.1983300000
H      8.6014800000     5.3183788000    23.1777300000
H      9.4446800000     5.9398788000    24.4126300000
O      4.6137841000     0.8437758000    30.2452300000
H      5.1737841000     0.8716758000    31.0877300000
H      4.0998841000    -0.0247242000    30.2939300000
O      1.4151192000     0.6205006000    25.9406300000
H      2.2478192000     0.7269806000    26.5328300000
H      1.0193192000    -0.1745294000    26.2985300000
O      6.6563947000     0.1119848000    32.3184300000
H      7.2622947000     0.7573242000    31.7731300000
H      6.9498947000    -0.7769152000    31.9536300000
O      9.0916900000     4.1751788000    32.2400300000
H      8.8977100000     3.2062788000    32.1223300000
H     10.0419000000     4.3423788000    31.8531300000
O      4.0384404000     5.3815800000    21.4447300000
H      4.0748404000     5.0163200000    22.3803300000
H      3.2046404000     4.9707400000    21.0398300000
H      2.6567751000     5.0820182000    28.2221300000
O      3.1114551000     6.0059182000    28.1417300000
H      3.5881551000     5.9575182000    27.2307300000
O      8.7657947000     0.8984306000    27.5754300000
H      9.0801947000     0.8336506000    26.5959300000
H      8.3898947000    -0.0023994000    27.7840300000
O      1.1654192000     1.1495758000    29.1012300000
H      1.6577192000     0.8691758000    29.9634300000
H      0.8739192000     0.2292758000    28.7360300000
O      1.3363245000     4.6856794000    31.9368300000
H      2.0367245000     4.0665594000    32.2567300000
H      1.7870245000     5.4148694000    31.4241300000
O      4.6062702000     2.4546424000    20.9640300000
H      4.0106702000     1.8563424000    20.4723300000
H      4.7756702000     2.0412424000    21.8694300000
O      9.2604649000     0.3034424000    24.8551300000
H     10.0757649000    -0.2077576000    24.5790300000
H      9.0453649000     0.9355424000    24.0922300000
O      0.9618596000     5.6842788000    24.8903300000
H      0.3275596000     4.9468788000    25.3210300000
H      1.9209596000     5.4089788000    25.2566300000
H     -0.8288106000     3.1212694000    25.4461300000
O      0.0468894000     3.1020094000    25.9124300000
H      0.3724894000     2.1914694000    25.7870300000
O      2.3986500000     1.9532606000    23.7156300000
H      1.8039500000     1.7006606000    24.5046300000
H      3.1250600000     1.1916606000    23.6671300000
O      1.2449300000     5.4116788000    20.7876300000
H      0.7738320000     5.4438788000    19.8695300000
H      1.2396400000     4.4002788000    20.9737300000
H      9.8862245000     2.8497182000    22.7449300000
H      8.3571245000     2.7063182000    22.2416300000
O      8.9951245000     2.4435182000    22.9334300000
O      8.5800245000     5.7798030000    21.5331300000
H      9.3003245000     6.0557030000    20.9351300000
H      7.6886245000     6.1439030000    21.2358300000
O      3.5085600000     0.4436576000    19.1685300000
H      3.4256649000    -0.4411424000    18.6385300000
H      2.6308649000     0.4936576000    19.5704300000
H      6.3596894000     2.7812400000    20.6681300000
O      7.3024894000     3.1619400000    20.6483300000
H      7.0599894000     4.1178600000    20.8179300000
H      8.3874596000     2.6322788000    27.6955300000
O      8.0152596000     3.6198788000    27.7277300000
H      7.0701596000     3.4451788000    28.0784300000
O      8.6410551000     0.6751424000    19.9177300000
H      7.8671251000    -0.0206576000    19.9309300000
H      8.2599702000     1.6244424000    20.0989300000
H      5.0804404000     8.0841288000    21.8670300000
H      3.5456404000     7.7341788000    22.3756300000
O      4.4242404000     8.2624588000    22.6166300000
O      5.6368702000     6.8196606000    29.0648300000
H      6.2523702000     7.1566606000    28.3183300000
H      4.7479702000     6.5822606000    28.6191300000
H      9.3451596000     7.2818788000    31.9485300000
O      9.0770596000     7.4817788000    30.9894300000
H      9.3808596000     6.6818788000    30.4070300000
H      5.6798947000     4.8751788000    31.9658300000
H      5.6518947000     4.0340788000    33.2504300000
O      5.0085947000     4.5629788000    32.7031300000
H      4.2993298000     6.8220600000    30.5495300000
H      4.1222298000     7.2327200000    32.0937300000
O      3.6907298000     7.3520400000    31.1637300000
H      0.9527651000     3.8843606000    27.2914300000
O      1.4131251000     3.8980606000    28.2032300000
H      1.3837951000     2.8932606000    28.4922300000
H      5.6311841000     6.9417400000    19.5694300000
H      5.4262841000     6.1668700000    20.8551300000
O      6.1668841000     6.7368900000    20.4094300000
O      1.5060596000     0.4376576000    31.9676300000
H      1.7463596000     1.2745576000    32.4454300000
H      2.1648596000    -0.2740424000    32.2636300000
H      7.7776245000     4.6738594000    31.0035300000
O      6.8832245000     4.8875894000    30.6855300000
H      6.9129245000     5.6818788000    30.0201300000
