441
Lattice="10.23490000 0.0 0.0 0.0 10.39568000 0.0 0.0 0.0 68.40744000" Properties=species:S:1:pos:R:3 Equilibrated sandwich structure: 20A_amor | Source: amor_sandwich/20A_amor/piston/traj_npzt_refine.lammpstrj | Equilibration phase: piston production run (last step) | MD step: 4000000 | Stoichiometry: H162O213Si66 (441 atoms) | Slab thickness: 53.41 A, Vacuum buffer: 15.0 A, Total Lz: 68.41 A
H      5.3359100000     8.5937900000     1.3017200000
H      1.2432300000     9.3374500000    16.4739400000
H      8.9818300000     1.3845900000     2.1064300000
H      8.0687800000     3.4359500000     2.1442300000
H      3.5969200000     3.5326500000     1.6919900000
H      8.0291100000     2.6711200000    17.7279400000
H      6.4398800000    10.1667000000    14.3536400000
H      3.9821900000     1.4816300000    17.3570400000
H      9.6181400000     7.3839000000     0.5000000000
H      1.2326800000     6.1206600000    17.3621400000
H      1.9402200000     9.9020600000     1.9803500000
H      5.8655300000     7.2365900000    17.2216400000
H      5.3191100000     8.5816900000    53.0635400000
H      1.2499200000     9.3366100000    37.8877400000
H      8.9838600000     1.3865300000    52.2551400000
H      8.0769700000     3.4379300000    52.2153400000
H      3.5881100000     3.5398600000    52.6699400000
H      8.0365500000     2.6677500000    36.6358400000
H      6.4340500000    10.1667000000    40.0106400000
H      3.9793700000     1.4894300000    36.9995400000
H      9.5102200000     7.4351900000    53.9074400000
H      1.2439800000     6.1164400000    36.9985400000
H      1.9335900000     9.8851700000    52.3938400000
H      5.8768800000     7.2357500000    37.1398400000
O      3.2675100000     2.9112900000     8.8668400000
O      1.7836100000     2.9447100000    11.0667400000
O      2.3938800000     9.1565400000     8.5496000000
O      2.9567200000     0.6732180000    10.2391400000
O      5.4085700000     3.7590400000    13.3034400000
O      5.9359200000     4.7096700000    10.8284400000
O      7.0926500000     2.5445700000    11.8409400000
O      4.4594700000     2.5718500000    11.1869400000
O      1.7133200000     2.3755800000     5.1864800000
O      0.3868230000     0.4391120000     3.9080900000
O      1.6533200000    10.1923000000     6.1605200000
O      9.7835800000     1.2599500000     6.2991900000
O      5.0230900000     8.7257400000     2.2038100000
O      2.9467700000     4.2519900000    13.6198400000
O      4.6286100000     4.9610100000    15.5015400000
O      6.3885800000     6.9002600000    14.9008400000
O      9.5399300000     8.0754800000     8.4426000000
O      9.2291500000     6.6391200000     6.0469800000
O      1.3058600000     7.5693300000     6.8214900000
O     10.2208000000     5.5378300000     8.0913300000
O      9.4064100000     9.1468100000    11.0269400000
O      7.4121600000     9.1650600000     9.3878400000
O      9.3793600000     0.3458720000     8.7907100000
O      2.7036000000     9.2463400000    13.6667400000
O      1.7128700000     0.7914260000    15.0954400000
O      3.0753300000     8.5701200000    11.1467400000
O      5.0323500000     8.1418500000    12.9939400000
O      0.0777893000     9.4578400000    13.6074400000
O      1.3023900000     8.7858700000    15.6846400000
O      2.6851100000     6.7672100000    13.0890400000
O      8.3951000000     0.5028480000    12.7457400000
O      7.7906600000     8.4255300000    13.1350400000
O      1.7960800000     3.1785600000    16.3621400000
O      3.9343200000     2.3702200000    15.1135400000
O      0.7694580000     4.8715000000     5.0244600000
O      9.5028500000     6.4834900000     3.4436600000
O      8.3267200000     4.4923100000     4.6375700000
O      2.9531900000     4.2382000000     6.5894900000
O      5.0470300000     4.7685100000     8.3007200000
O      5.0031000000     2.5442000000     6.9149100000
O      3.2235300000     4.3308500000     3.9909500000
O      7.1963300000     7.4981800000     2.5485400000
O      4.7641900000     6.3527900000     2.9616900000
O      5.6655000000     8.2487200000     4.5734300000
O      5.9974200000     6.9529500000     9.4385400000
O      7.6922500000     4.9912800000     8.8830400000
O      5.5196400000     0.1504280000     5.8947600000
O      6.8449800000     2.2867400000     5.0144200000
O      7.3674200000     1.3677800000     7.3773400000
O      9.6908600000     2.7296700000    12.3545400000
O      9.8331200000     4.3044200000    10.3140400000
O      0.7858030000     4.9998700000    12.4903400000
O      9.4880000000     8.8962000000     2.3263200000
O      9.5796000000     3.9140100000    16.1351400000
O      1.2272100000     5.4860700000    15.0697400000
O      9.6725100000     0.9372300000     1.5818500000
O      3.6980900000     8.6210300000     6.2927400000
O      7.9508200000     2.7693800000     2.8370700000
O      4.1444900000     4.3256900000     1.6473400000
O      5.8889400000     4.0782900000     3.4317100000
O      8.0173300000     2.6028900000    14.3857400000
O      7.7856500000     2.3084700000    16.8675400000
O      7.0975600000     4.5576300000    16.0000400000
O      6.1017300000     8.3897100000     7.2367100000
O      4.8271300000     9.3504800000     9.3879400000
O      9.2896500000     2.9890500000     8.1733900000
O      6.2070300000     9.3604900000    14.8310400000
O      3.0870300000     1.1810200000    17.1573400000
O      9.0445200000     6.7985300000     1.0083000000
O      0.9388600000     5.2237800000    17.5620400000
O      1.2032300000    10.3427000000     1.5346400000
O      5.7932100000     6.2764000000    17.2850400000
O      3.2681100000     2.9114800000    45.4959400000
O      1.7840900000     2.9454100000    43.2961400000
O      2.3941800000     9.1568100000    45.8125400000
O      2.9568400000     0.6735890000    44.1232400000
O      5.4096000000     3.7584500000    41.0591400000
O      5.9367200000     4.7095700000    43.5339400000
O      7.0931100000     2.5439000000    42.5221400000
O      4.4598300000     2.5720900000    43.1757400000
O      1.7137200000     2.3759300000    49.1761400000
O      0.3869350000     0.4391800000    50.4540400000
O      1.6537000000    10.1928000000    48.2016400000
O      9.7841200000     1.2605500000    48.0628400000
O      5.0232300000     8.7264200000    52.1577400000
O      2.9478100000     4.2516300000    40.7426400000
O      4.6297000000     4.9602200000    38.8608400000
O      6.3892900000     6.8995400000    39.4621400000
O      9.5400200000     8.0757700000    45.9200400000
O      9.2299000000     6.6393600000    48.3157400000
O      1.3064000000     7.5697700000    47.5408400000
O     10.2214000000     5.5381700000    46.2711400000
O      9.4072700000     9.1466700000    43.3354400000
O      7.4124900000     9.1653700000    44.9739400000
O      9.3796700000     0.3461140000    45.5715400000
O      2.7045300000     9.2457800000    40.6951400000
O      1.7136200000     0.7908180000    39.2666400000
O      3.0755000000     8.5704600000    43.2153400000
O      5.0331200000     8.1416800000    41.3687400000
O      0.0786275000     9.4573500000    40.7548400000
O      1.3030300000     8.7851900000    38.6775400000
O      2.6859900000     6.7668600000    41.2734400000
O      8.3960800000     0.5025980000    41.6167400000
O      7.7914400000     8.4251800000    41.2275400000
O      1.7972300000     3.1778800000    37.9999400000
O      3.9351500000     2.3695700000    39.2492400000
O      0.7704770000     4.8721900000    49.3386400000
O      9.5031900000     6.4844100000    50.9190400000
O      8.3279000000     4.4926200000    49.7251400000
O      2.9538200000     4.2385200000    47.7732400000
O      5.0475200000     4.7690200000    46.0616400000
O      5.0040400000     2.5448900000    47.4477400000
O      3.2246700000     4.3306700000    50.3716400000
O      7.1966900000     7.4992900000    51.8137400000
O      4.7650100000     6.3529900000    51.4007400000
O      5.6660500000     8.2488000000    49.7883400000
O      5.9976900000     6.9533100000    44.9233400000
O      7.6927400000     4.9919500000    45.4794400000
O      5.5204700000     0.1508650000    48.4674400000
O      6.8460800000     2.2871400000    49.3480400000
O      7.3680500000     1.3684100000    46.9848400000
O      9.6912400000     2.7295700000    42.0086400000
O      9.8336500000     4.3057000000    44.0481400000
O      0.7863150000     4.9996500000    41.8713400000
O      9.4894500000     8.8961000000    52.0375400000
O      9.5808200000     3.9135500000    38.2278400000
O      1.2289100000     5.4857100000    39.2920400000
O      9.6730800000     0.9375810000    52.7808400000
O      3.6986200000     8.6217300000    48.0693400000
O      7.9521300000     2.7695100000    51.5254400000
O      4.1459800000     4.3256500000    52.7152400000
O      5.8901900000     4.0786300000    50.9309400000
O      8.0180900000     2.6030200000    39.9773400000
O      7.7869700000     2.3079300000    37.4956400000
O      7.0987600000     4.5573200000    38.3622400000
O      6.1020800000     8.3902000000    47.1250400000
O      4.8273700000     9.3508300000    44.9739400000
O      9.2901900000     2.9893800000    46.1883400000
O      6.2080000000     9.3597200000    39.5313400000
O      3.0884500000     1.1803100000    37.2051400000
O      9.0447000000     6.7973900000    53.3538400000
O      0.9396790000     5.2227500000    36.8000400000
O      1.2030200000    10.3464000000    52.8287400000
O      5.7938500000     6.2763300000    37.0777400000
Si     3.0962700000     2.2821600000    10.3523400000
Si     5.7261400000     3.4013300000    11.7680400000
Si     0.8513230000     0.9830620000     5.3766400000
Si     4.2538600000     3.8111300000    14.4201400000
Si    10.1249000000     6.9810200000     7.3621500000
Si     9.0093200000     9.2799200000     9.4300400000
Si     3.4110000000     8.1678400000    12.6951400000
Si     1.4135100000     9.6681700000    14.5470400000
Si     9.0044900000     9.4142800000    12.6091400000
Si     2.6419500000     1.8463700000    15.9548400000
Si     9.5304000000     5.6016400000     4.8119200000
Si     4.0554000000     3.6423500000     7.6513100000
Si     2.1476500000     3.9653700000     5.1880300000
Si     5.6495700000     7.7260100000     3.0360600000
Si     6.1665800000     5.3457400000     9.3493400000
Si     6.1675300000     1.5824700000     6.3065300000
Si     0.4359870000     3.7306400000    11.5576400000
Si     8.8121100000     7.4083600000     2.2951100000
Si     0.8439000000     4.5002900000    16.3170400000
Si     0.0502450000    10.3209000000     2.3982000000
Si     2.2459400000     8.8896400000     6.9513600000
Si     4.4668900000     4.7486200000     2.9892800000
Si     8.1065700000     3.2967700000    15.8656400000
Si     6.0717500000     8.4602400000     8.8576400000
Si     5.2526300000     8.9476000000     5.9804900000
Si     8.2867300000     2.1074600000    12.8489400000
Si     7.2901200000     3.4172200000     3.9463800000
Si     9.2414100000     4.4699300000     8.8338000000
Si     3.2902400000     9.5315100000     9.8483400000
Si     1.8835600000     5.4370100000    13.5783400000
Si     5.9766300000     5.7255200000    15.9631400000
Si     8.9604500000     1.4773900000     7.6807600000
Si     6.3672200000     8.2303500000    13.9499400000
Si     3.0966400000     2.2825400000    44.0103400000
Si     5.7268300000     3.4010600000    42.5946400000
Si     0.8516420000     0.9834770000    48.9857400000
Si     4.2548600000     3.8105300000    39.9424400000
Si    10.1254000000     6.9813400000    47.0004400000
Si     9.0097000000     9.2800900000    44.9322400000
Si     3.4117400000     8.1676500000    41.6673400000
Si     1.4142500000     9.6675800000    39.8151400000
Si     9.0053700000     9.4139800000    41.7532400000
Si     2.6430300000     1.8457500000    38.4075400000
Si     9.5313800000     5.6022100000    49.5509400000
Si     4.0560600000     3.6427900000    46.7113400000
Si     2.1484600000     3.9656400000    49.1747400000
Si     5.6498800000     7.7264800000    51.3258400000
Si     6.1670900000     5.3461400000    45.0129400000
Si     6.1684200000     1.5829700000    48.0559400000
Si     0.4364460000     3.7310200000    42.8048400000
Si     8.8122100000     7.4087000000    52.0678400000
Si     0.8451170000     4.4996600000    38.0451400000
Si     0.0505411000    10.3212000000    51.9643400000
Si     2.2463800000     8.8901700000    47.4108400000
Si     4.4680400000     4.7487400000    51.3732400000
Si     8.1077100000     3.2964900000    38.4973400000
Si     6.0720400000     8.4606400000    45.5041400000
Si     5.2532100000     8.9480700000    48.3814400000
Si     8.2873100000     2.1072000000    41.5140400000
Si     7.2913600000     3.4174600000    50.4162400000
Si     9.2419100000     4.4705200000    45.5284400000
Si     3.2904300000     9.5318500000    44.5137400000
Si     1.8846000000     5.4366800000    40.7838400000
Si     5.9776300000     5.7250500000    38.3995400000
Si     8.9610300000     1.4778400000    46.6813400000
Si     6.3680600000     8.2298600000    40.4127400000
O      0.4504000000     7.9874600000    19.4714400000
H      1.2723000000     7.4027600000    19.1991400000
H     -0.3777000000     7.3985600000    19.3680400000
O      4.6114000000     8.7876200000    37.3972400000
H      4.6326000000     9.6958200000    37.0852400000
H      5.0468000000     8.9100200000    38.2571400000
O      0.6219400000     2.6452200000    25.2705400000
H      0.0954000000     2.4205700000    24.4583400000
H     -0.0225000000     2.7638300000    26.0384400000
O      7.4251000000     1.8420000000    32.1325400000
H      7.9749000000     2.1685100000    31.3435400000
H      7.2026000000     2.7297900000    32.5597400000
O      7.9141000000     6.5852100000    27.1397400000
H      6.9476000000     6.9283800000    27.2350400000
H      8.3491000000     7.3432300000    26.6210400000
O      9.4332000000     2.4223600000    35.1877400000
H      8.8638000000     2.9260600000    34.4664400000
H     10.3849000000     2.2397600000    34.8191400000
O      5.2366000000     3.9488600000    33.9851400000
H      4.6649000000     4.6360600000    34.4323400000
H      5.1273000000     4.0948600000    33.0140400000
O      0.4362000000     9.1968400000    29.7557400000
H      0.2136000000     9.1621400000    30.7290400000
H     -0.4769000000     9.0274400000    29.2988400000
O      6.2439000000     2.9275400000    27.2083400000
H      7.0191000000     3.4758400000    27.5718400000
H      5.4355000000     3.1925400000    27.7359400000
O      4.7379000000     8.6241400000    24.2514400000
H      4.8852000000     9.0798900000    25.1325400000
H      5.1850000000     9.2019400000    23.6528400000
O      3.5574000000     6.1741400000    34.5635400000
H      4.2254000000     6.8740400000    34.4699400000
H      2.8936000000     6.6902400000    35.1714400000
O      8.0447000000    10.0239600000    28.7780400000
H      8.1690000000    10.9516700000    29.1503400000
H      7.5530000000     9.5484600000    29.5323400000
O      5.1309000000     0.0811600000    26.1670400000
H      4.3844000000     0.7443600000    26.4438400000
H      5.9690000000     0.7121600000    26.1086400000
O      7.6557000000     1.4886400000    25.2110400000
H      8.3113000000     2.0346400000    24.6761400000
H      7.2369000000     2.1358400000    25.8636400000
O      5.4327000000     0.0989000000    33.0606400000
H      4.9142000000     0.3970000000    32.2441400000
H      6.3028000000     0.6876000000    33.0350400000
O      7.6941800000     8.7150000000    22.2771400000
H      8.6138100000     9.0901000000    22.1981400000
H      7.8873000000     7.7469000000    22.5194400000
O      2.8474000000    10.2367800000    34.3200400000
H      3.7402000000    10.4024800000    33.8128400000
H      3.0519000000    10.5264800000    35.2680400000
O      2.0142000000     8.4138000000    23.7301400000
H      1.7164200000     9.0561000000    24.5005400000
H      2.9808500000     8.0905000000    23.9850400000
O      4.3200000000     5.8713600000    25.4376400000
H      4.6827000000     6.8331600000    25.2672400000
H      5.0983000000     5.3553600000    25.0809400000
O      2.7922800000     6.3282200000    27.7447400000
H      3.3755900000     6.0726100000    26.9045400000
H      2.9207800000     7.3277800000    27.9215400000
O      3.7628000000    10.3144000000    30.7408400000
H      3.1200000000     9.8046100000    31.2505400000
H      3.6962000000     9.8560700000    29.8320400000
O      2.0309000000     8.0111000000    36.1864400000
H      1.6710000000     8.8582000000    35.7871400000
H      2.6518000000     8.2939000000    36.9691400000
O      3.0204000000     7.3555400000    18.4362400000
H      3.1386000000     7.7344400000    19.3785400000
H      3.6584000000     7.8945400000    17.8557400000
O      8.1162500000     9.3321200000    26.2285400000
H      8.0485300000     9.7305200000    27.1750400000
H      7.8649900000    10.0458200000    25.5650400000
O      1.4496300000     5.3507800000    23.1722400000
H      1.5551700000     4.9480800000    24.1202400000
H      1.2083500000     6.3806800000    23.3312400000
O      0.4803100000     3.6105600000    21.0341400000
H      1.0984900000     4.2752600000    21.4265400000
H      1.0497300000     2.8938600000    20.6216400000
O      7.9551000000     4.4877200000    33.5320400000
H      6.9441000000     4.3134200000    33.8140400000
H      7.9807000000     5.3411200000    32.9293400000
O      7.7572000000     6.0914000000    29.9250400000
H      7.8733000000     6.1697000000    28.9086400000
H      7.6468000000     7.1207000000    30.2027400000
O      4.4437000000     3.0195400000    23.8060400000
H      4.2861000000     3.6067400000    23.0500400000
H      5.2895000000     3.4117400000    24.2575400000
O      0.9837010000    10.0985200000    25.8299400000
H      0.0273680000     9.7695200000    26.1286400000
H      0.9619970000    11.0909200000    25.8265400000
O      6.6329000000     4.7206800000    24.6902400000
H      7.2687000000     5.0296800000    25.3950400000
H      7.1063000000     4.9182800000    23.8189400000
O      5.8694000000     0.6420600000    36.5523400000
H      6.5255000000    -0.1195400000    36.6176400000
H      6.3567000000     1.4431600000    36.9737400000
O      4.1969000000     4.0578000000    29.0791400000
H      3.8432000000     4.9310000000    28.6419400000
H      3.4677000000     3.3085000000    29.0577400000
O      4.9837100000     9.0308200000    17.4162400000
H      4.1989200000     9.5776200000    17.1845400000
H      5.6757600000     9.4713200000    16.8552400000
O      0.7751000000    10.3015200000    17.9217400000
H      1.1924000000    11.1183200000    18.3889400000
H      0.7949000000     9.4897200000    18.5789400000
O      2.9063500000     9.3028100000    28.1825400000
H      2.0463100000     9.2849500000    28.7219400000
H      2.7107900000     9.9309300000    27.4417400000
O      5.6233000000     0.1576200000    21.6228400000
H      5.9945000000     1.0942200000    21.7477400000
H      6.4197000000    -0.3914800000    21.8475400000
O      9.5729000000     1.8625100000    22.9264400000
H      9.7299100000     0.9116230000    22.5401400000
H      9.9477600000     2.4904000000    22.2837400000
O      0.6207000000     4.7732200000    28.7374400000
H      1.4356000000     5.2074200000    28.2938400000
H      0.8130000000     4.9853200000    29.7270400000
O      7.1148000000     2.5039200000    21.3838400000
H      7.8162000000     2.4151200000    22.1437400000
H      7.5578000000     3.0564200000    20.6360400000
O      3.2230500000     2.1814800000    26.4966400000
H      3.5364900000     2.8401800000    25.7635400000
H      2.2660200000     2.4397800000    26.5628400000
O      9.8930200000     9.5386600000    32.5715400000
H      9.9451600000    10.5310600000    32.5269400000
H     10.8450000000     9.2151600000    32.7631400000
O      2.1530600000     8.1894200000    32.0319400000
H      2.5730300000     7.9071200000    32.9259400000
H      1.8471700000     7.4012200000    31.5873400000
O      8.5380100000     5.7377100000    22.5768400000
H      7.7769700000     5.5715000000    21.8486400000
H      9.4024890000     5.3334500000    22.2875400000
O      1.8078900000     1.9057000000    29.6856400000
H      1.6799000000     2.2423000000    30.5951400000
H      2.3815600000     1.1105000000    29.5861400000
O      1.3967000000     1.6567600000    32.8827400000
H      1.7462000000     0.8298600000    33.2975400000
H      1.9391000000     2.3553600000    33.3692400000
O      9.9686000000    10.3716600000    36.6159400000
H      9.6797000000    11.2460600000    36.2178400000
H      9.2267000000     9.6871600000    36.5818400000
O      4.6789000000     4.3799200000    18.9804400000
H      5.0251000000     5.1756200000    18.4373400000
H      3.8924000000     4.7195200000    19.6036400000
O      5.9663000000     4.6375400000    31.3025400000
H      6.7846000000     4.9468400000    30.7888400000
H      5.3279000000     4.3067400000    30.5770400000
O      8.2135000000     7.4895400000    33.2823400000
H      8.9116000000     8.1679400000    32.9112400000
H      8.5827000000     7.1803400000    34.2173400000
O      9.0805000000     1.9878600000    29.6818400000
H      9.0952000000     2.8919600000    29.2373400000
H     10.0542000000     1.7406600000    29.9578400000
O      2.1990000000     3.7583600000    34.7184400000
H      1.7361000000     3.9911600000    35.5660400000
H      2.7812000000     4.5217600000    34.6326400000
O     10.2092000000     6.1461600000    31.4670400000
H      9.3312000000     6.1161600000    30.9099400000
H     10.0229000000     5.6950600000    32.3744400000
O      8.0316000000     6.7036400000    19.3667400000
H      7.2744000000     6.1380400000    19.7085400000
H      7.6611000000     7.4606400000    18.7913400000
O      3.8305000000     8.2595000000    21.1260400000
H      3.2590000000     8.7393500000    21.8328400000
H      4.6252000000     8.7751000000    21.0732400000
O      3.5549000000     5.2931800000    21.3083400000
H      3.5930000000     6.3091800000    21.2419400000
H      2.8487000000     5.1564800000    22.0418400000
O      2.1809000000     1.4978800000    19.8354400000
H      2.3781800000     1.2219800000    20.7837400000
H      2.9921300000     1.4401800000    19.3033400000
O      7.5926300000     8.8548400000    36.4261400000
H      6.8515600000     8.5355400000    35.7832400000
H      8.3056400000     8.1230400000    36.3120400000
O      8.9495000000     4.0177600000    26.9018400000
H      9.6590000000     4.3037600000    27.6255400000
H      8.4662000000     4.8753600000    26.7297400000
O      5.2865600000     1.5119300000    18.5098400000
H      5.5027400000     2.4217900000    18.8999400000
H      6.1445700000     0.9999910000    18.6884400000
O      3.0374000000     0.6377730000    22.3953400000
H      3.9685000000     0.3080150000    22.1523400000
H      3.2162000000     1.5517200000    22.8503400000
O      8.5184000000     6.2419800000    35.7777400000
H      9.2973000000     5.9574800000    36.3842400000
H      7.8065000000     5.5588800000    35.7600400000
O      6.5784600000     8.4423400000    30.7023400000
H      5.9368000000     7.7784400000    30.3272400000
H      6.2409400000     8.7361400000    31.5679400000
O      0.0874000000     9.5059400000    21.8752400000
H      0.1433000000     9.1713400000    20.9065400000
H      0.8415000000     9.0311400000    22.3402400000
O      8.2758000000     9.0208600000    17.1273400000
H      8.4242000000     8.4781600000    16.3660400000
H      8.9798000000     9.7473600000    17.2601400000
O      6.3091300000     5.0789400000    21.0450400000
H      5.4803400000     5.5395400000    21.3854400000
H      5.9450600000     4.3149400000    20.4520400000
O      8.5972000000     3.6229600000    19.0981400000
H      8.7560000000     4.6012600000    18.8227400000
H      9.4882000000     3.2225600000    19.2569400000
O      5.7107400000     8.1385400000    34.4575400000
H      6.5325800000     7.6850400000    34.0307400000
H      5.5954500000     9.0294400000    33.9161400000
O      5.6364000000     7.9157600000    27.9119400000
H      4.7247000000     8.2980800000    28.1668400000
H      5.8775000000     8.5973500000    27.2461400000
