309
Lattice="15.09200420 0.0 0.0 0.0 7.51730490 0.0 0.0 0.0 53.36953000" Properties=species:S:1:pos:R:3 Equilibrated sandwich structure: beta_5 | Source: beta_sandwich/beta_5/piston/traj_npzt_refine.lammpstrj | Equilibration phase: piston production run (last step) | MD step: 4000000 | Stoichiometry: H78O167Si64 (309 atoms) | Slab thickness: 38.37 A, Vacuum buffer: 15.0 A, Total Lz: 53.37 A
H      4.1161200000     2.2465900000    16.3304300000
H      0.3239150000     6.6590900000    15.7655300000
H      7.1714200000     1.7013200000    16.4106300000
H      3.5145500000     4.6934300000    15.8369300000
H     13.8701000000     0.3772700000     0.5000000000
H      1.4781700000     6.4190300000     1.3423500000
H      2.4865000000     4.1645400000     0.5395500000
H      5.1980600000     2.6644700000     1.3169000000
H     11.6621000000     2.2465900000    16.3304300000
H      7.8699200000     6.6591000000    15.7655300000
H     14.7174000000     1.7013300000    16.4106300000
H     11.0605000000     4.6934100000    15.8369300000
H      6.3241200000     0.3772660000     0.5000000000
H      9.0241700000     6.4190200000     1.3423500000
H     10.0325000000     4.1645300000     0.5395400000
H     12.7441000000     2.6644700000     1.3169000000
H      4.1161300000     2.2465900000    23.0391300000
H      0.3239070000     6.6590700000    23.6040300000
H      7.1714200000     1.7013300000    22.9589300000
H      3.5145400000     4.6934100000    23.5326300000
H     13.8701000000     0.3772720000    38.8695300000
H      1.4781700000     6.4190300000    38.0272300000
H      2.4865000000     4.1645400000    38.8300300000
H      5.1980600000     2.6644700000    38.0526300000
H     11.6621000000     2.2465900000    23.0391300000
H      7.8699100000     6.6590900000    23.6040300000
H     14.7174000000     1.7013300000    22.9589300000
H     11.0605000000     4.6933900000    23.5326300000
H      6.3241200000     0.3772670000    38.8695300000
H      9.0241700000     6.4190200000    38.0272300000
H     10.0325000000     4.1645400000    38.8300300000
H     12.7441000000     2.6644700000    38.0526300000
O      6.6709200000     6.5919300000     2.9221700000
O      0.9840050000     4.7279200000     6.6999600000
O      4.7647300000     2.8342500000     8.5724300000
O      2.9159200000     0.9370800000     4.8024100000
O      1.0225600000     6.6252100000     8.5566300000
O      4.7729200000     0.9517030000     6.7038800000
O      6.6861900000     4.6928400000     4.7883600000
O      2.8841900000     2.8469100000     2.9466500000
O      6.6615700000     0.9680440000     8.5727300000
O      4.7875100000     4.7366100000     2.9203100000
O      2.9026400000     6.5736600000     6.6786100000
O      1.0258000000     2.8160400000     4.8566100000
O      4.8131900000     6.5873600000     4.8313200000
O      2.8703300000     4.7069100000     8.5698300000
O      6.6471600000     2.8449300000     6.6935200000
O      1.0171900000     0.9757460000     2.9344100000
O      6.6825600000     6.5878800000    10.4286300000
O      0.9535150000     4.7247400000    14.2167300000
O      4.8437700000     2.7738200000    15.9672300000
O      2.8874200000     0.9347200000    12.3114300000
O      1.2154700000     6.4561400000    16.0863300000
O      4.7577800000     0.9584190000    14.2056300000
O      6.6625600000     4.6958100000    12.2909300000
O      2.8962700000     2.8437100000    10.4629300000
O      6.4252400000     1.1737100000    16.0898300000
O      4.7699100000     4.7359300000    10.4267300000
O      2.9255600000     6.5718700000    14.1975300000
O      1.0190800000     2.8307100000    12.3460300000
O      4.8078100000     6.6041700000    12.3137300000
O      2.6215000000     4.9256200000    16.1352300000
O      6.6490600000     2.8382100000    14.1967300000
O      0.9976360000     0.9754970000    10.4458300000
O     14.2752000000     0.9247710000     1.1864600000
O      0.7274160000     6.9107200000     0.9650200000
O      2.9130000000     4.7055400000     1.2181500000
O      4.4436200000     3.1610900000     0.9549900000
O     14.2169000000     6.5919100000     2.9221800000
O      8.5300600000     4.7279500000     6.7000100000
O     12.3107000000     2.8342600000     8.5724300000
O     10.4619000000     0.9371510000     4.8023400000
O      8.5686100000     6.6251600000     8.5565300000
O     12.3190000000     0.9517360000     6.7039200000
O     14.2322000000     4.6928500000     4.7883500000
O     10.4301000000     2.8468500000     2.9467100000
O     14.2076000000     0.9680260000     8.5728300000
O     12.3336000000     4.7366400000     2.9203500000
O     10.4486000000     6.5735900000     6.6786700000
O      8.5718500000     2.8159900000     4.8565600000
O     12.3593000000     6.5873000000     4.8312600000
O     10.4163000000     4.7069300000     8.5697300000
O     14.1932000000     2.8449500000     6.6935000000
O      8.5632300000     0.9757830000     2.9344500000
O     14.2286000000     6.5879100000    10.4286300000
O      8.4995300000     4.7247500000    14.2167300000
O     12.3898000000     2.7738300000    15.9672300000
O     10.4334000000     0.9347270000    12.3114300000
O      8.7614700000     6.4561500000    16.0863300000
O     12.3038000000     0.9584160000    14.2056300000
O     14.2086000000     4.6957900000    12.2909300000
O     10.4423000000     2.8437000000    10.4629300000
O     13.9712000000     1.1737200000    16.0898300000
O     12.3159000000     4.7359100000    10.4267300000
O     10.4716000000     6.5718700000    14.1975300000
O      8.5651000000     2.8307000000    12.3460300000
O     12.3538000000     6.6041900000    12.3137300000
O     10.1675000000     4.9256200000    16.1352300000
O     14.1951000000     2.8382300000    14.1967300000
O      8.5436700000     0.9755240000    10.4458300000
O      6.7292000000     0.9247750000     1.1864600000
O      8.2734200000     6.9107300000     0.9650200000
O     10.4590000000     4.7055200000     1.2181600000
O     11.9896000000     3.1610900000     0.9550100000
O      6.6709200000     6.5919300000    36.4473300000
O      0.9840030000     4.7279100000    32.6695300000
O      4.7647300000     2.8342500000    30.7970300000
O      2.9159300000     0.9370810000    34.5671300000
O      1.0225700000     6.6252100000    30.8129300000
O      4.7729200000     0.9516990000    32.6656300000
O      6.6861900000     4.6928400000    34.5812300000
O      2.8841900000     2.8469100000    36.4229300000
O      6.6615800000     0.9680450000    30.7968300000
O      4.7875100000     4.7366100000    36.4492300000
O      2.9026400000     6.5736500000    32.6909300000
O      1.0258000000     2.8160400000    34.5129300000
O      4.8132000000     6.5873600000    34.5382300000
O      2.8703300000     4.7069100000    30.7997300000
O      6.6471500000     2.8449200000    32.6760300000
O      1.0171900000     0.9757460000    36.4351300000
O      6.6825600000     6.5878800000    28.9408300000
O      0.9535170000     4.7247400000    25.1528300000
O      4.8437500000     2.7738400000    23.4023300000
O      2.8874200000     0.9347210000    27.0581300000
O      1.2154600000     6.4561500000    23.2832300000
O      4.7577800000     0.9584210000    25.1639300000
O      6.6625600000     4.6958100000    27.0786300000
O      2.8962600000     2.8437100000    28.9065300000
O      6.4252200000     1.1737300000    23.2796300000
O      4.7699100000     4.7359300000    28.9428300000
O      2.9255600000     6.5718700000    25.1720300000
O      1.0190800000     2.8307100000    27.0234300000
O      4.8078100000     6.6041700000    27.0557300000
O      2.6214900000     4.9256300000    23.2343300000
O      6.6490600000     2.8382200000    25.1728300000
O      0.9976380000     0.9754960000    28.9237300000
O     14.2752000000     0.9247710000    38.1830300000
O      0.7274170000     6.9107200000    38.4045300000
O      2.9130000000     4.7055400000    38.1514300000
O      4.4436200000     3.1610800000    38.4145300000
O     14.2169000000     6.5919100000    36.4473300000
O      8.5300600000     4.7279500000    32.6695300000
O     12.3107000000     2.8342500000    30.7970300000
O     10.4619000000     0.9371530000    34.5672300000
O      8.5686200000     6.6251500000    30.8130300000
O     12.3190000000     0.9517320000    32.6656300000
O     14.2322000000     4.6928500000    34.5812300000
O     10.4301000000     2.8468500000    36.4228300000
O     14.2076000000     0.9680270000    30.7967300000
O     12.3336000000     4.7366500000    36.4492300000
O     10.4486000000     6.5735900000    32.6908300000
O      8.5718600000     2.8159900000    34.5130300000
O     12.3593000000     6.5873000000    34.5383300000
O     10.4163000000     4.7069300000    30.7997300000
O     14.1932000000     2.8449500000    32.6760300000
O      8.5632300000     0.9757830000    36.4351300000
O     14.2286000000     6.5879100000    28.9409300000
O      8.4995300000     4.7247500000    25.1528300000
O     12.3897000000     2.7738400000    23.4023300000
O     10.4334000000     0.9347270000    27.0581300000
O      8.7614700000     6.4561500000    23.2832300000
O     12.3038000000     0.9584170000    25.1639300000
O     14.2086000000     4.6957900000    27.0786300000
O     10.4423000000     2.8437000000    28.9065300000
O     13.9712000000     1.1737400000    23.2796300000
O     12.3159000000     4.7359100000    28.9428300000
O     10.4716000000     6.5718700000    25.1720300000
O      8.5651000000     2.8307000000    27.0235300000
O     12.3538000000     6.6041900000    27.0557300000
O     10.1675000000     4.9256300000    23.2343300000
O     14.1951000000     2.8382300000    25.1728300000
O      8.5436700000     0.9755220000    28.9237300000
O      6.7292000000     0.9247760000    38.1830300000
O      8.2734200000     6.9107300000    38.4045300000
O     10.4590000000     4.7055200000    38.1514300000
O     11.9896000000     3.1610900000    38.4145300000
Si     1.9611200000     1.8941500000     3.8941300000
Si     5.7129000000     1.9003200000     7.6347800000
Si     1.9456400000     5.6587300000     7.6266300000
Si     5.7400600000     5.6520300000     3.8740200000
Si     0.0636028000     3.7691000000     5.7600400000
Si     0.0190541000     0.0829472000     2.0120400000
Si     3.7627000000     3.8531100000     2.0186700000
Si     3.8507700000     0.0038930600     5.7542200000
Si     1.9504700000     1.8969600000    11.3908300000
Si     5.6683900000     1.9373100000    15.1305300000
Si     1.9296800000     5.6682700000    15.1126300000
Si     5.7304200000     5.6565300000    11.3647300000
Si     0.0484411000     3.7717600000    13.2535300000
Si     0.0688622000     0.0297123000     9.5006300000
Si     3.8253000000     3.7798500000     9.5076300000
Si     3.8444900000     0.0085362400    13.2481300000
Si     9.5071800000     1.8941500000     3.8941700000
Si    13.2588000000     1.9002800000     7.6347200000
Si     9.4916500000     5.6587800000     7.6265900000
Si    13.2860000000     5.6520600000     3.8740300000
Si     7.6095100000     3.7691400000     5.7600100000
Si     7.5649800000     0.0828749000     2.0120200000
Si    11.3087000000     3.8531300000     2.0185800000
Si    11.3968000000     0.0039087600     5.7542700000
Si     9.4964400000     1.8969400000    11.3908300000
Si    13.2144000000     1.9373000000    15.1305300000
Si     9.4756600000     5.6682500000    15.1125300000
Si    13.2764000000     5.6565200000    11.3647300000
Si     7.5944400000     3.7717500000    13.2535300000
Si     7.6148400000     0.0297409000     9.5006300000
Si    11.3714000000     3.7798400000     9.5077300000
Si    11.3905000000     0.0085202000    13.2481300000
Si     1.9611200000     1.8941500000    35.4754300000
Si     5.7129000000     1.9003200000    31.7347300000
Si     1.9456400000     5.6587300000    31.7429300000
Si     5.7400600000     5.6520300000    35.4955300000
Si     0.0636023000     3.7690900000    33.6095300000
Si     0.0190562000     0.0829484000    37.3575300000
Si     3.7627000000     3.8531100000    37.3508300000
Si     3.8507700000     0.0038911800    33.6153300000
Si     1.9504700000     1.8969600000    27.9787300000
Si     5.6683800000     1.9373100000    24.2390300000
Si     1.9296800000     5.6682800000    24.2569300000
Si     5.7304200000     5.6565300000    28.0048300000
Si     0.0484417000     3.7717600000    26.1160300000
Si     0.0688634000     0.0297106000    29.8689300000
Si     3.8253000000     3.7798500000    29.8619300000
Si     3.8444900000     0.0085368100    26.1213300000
Si     9.5071800000     1.8941500000    35.4753300000
Si    13.2588000000     1.9002800000    31.7348300000
Si     9.4916500000     5.6587800000    31.7429300000
Si    13.2860000000     5.6520600000    35.4955300000
Si     7.6095100000     3.7691400000    33.6095300000
Si     7.5649800000     0.0828752000    37.3575300000
Si    11.3087000000     3.8531300000    37.3509300000
Si    11.3968000000     0.0039072800    33.6152300000
Si     9.4964400000     1.8969400000    27.9787300000
Si    13.2144000000     1.9373000000    24.2390300000
Si     9.4756600000     5.6682500000    24.2569300000
Si    13.2764000000     5.6565200000    28.0048300000
Si     7.5944500000     3.7717500000    26.1160300000
Si     7.6148400000     0.0297400000    29.8689300000
Si    11.3714000000     3.7798400000    29.8618300000
Si    11.3905000000     0.0085208100    26.1214300000
O      8.4172000000     2.7407600000    22.1788300000
H      8.8575700000     3.4519100000    22.7810300000
H      8.2541300000     3.2918900000    21.3690300000
O      8.7613300000     5.1063549000    20.6304300000
H      9.6503200000     4.8762949000    20.1556300000
H      9.0484400000     5.7496949000    21.4069300000
O      0.7352958000     3.0310400000    22.1253300000
H      1.1880958000     2.6604500000    21.2972300000
H      1.3938958000     3.7472800000    22.4568300000
O     11.2331000000     4.5468902000    19.5992300000
H     12.0236000000     3.8917902000    19.4310300000
H     11.3357000000     5.3551902000    19.0888300000
O     13.7411442000     5.4341398000    16.5429300000
H     13.1569742000     5.8095398000    17.2601300000
H     13.6576242000     4.4317098000    16.4754300000
O      5.4704500000     5.8270100000    15.9972300000
H      5.7263000000     5.1700800000    16.6959300000
H      5.6865800000     6.8040000000    16.2234300000
O      8.3972958000     2.9471902000    16.9837300000
H      9.0898958000     3.5768902000    16.7252300000
H      7.7754958000     3.6381902000    17.3989300000
O     10.4603000000     1.1174851000    16.9217300000
H      9.8771800000     1.8269751000    17.3632300000
H      9.8564000000     0.3234251000    16.7991300000
O      3.0001400000     0.8390851000    22.1671300000
H      2.4672300000     0.0264751000    22.3254300000
H      3.5890100000     0.6918651000    21.3414300000
O      2.4267958000     2.8109098000    19.9612300000
H      3.4073958000     2.5306098000    19.9520300000
H      1.9280958000     2.3997098000    19.1544300000
O      5.4628600000     5.9582400000    23.3158300000
H      5.9005300000     6.8725700000    23.3335300000
H      5.0642500000     5.9493400000    22.3837300000
O      4.5678600000     0.6843751000    19.2763300000
H      4.2061700000     0.6892451000    18.3168300000
H      4.3594400000    -0.2712449000    19.6145300000
O      5.4471200000     3.1681500000    20.1615300000
H      5.1582500000     2.2848600000    19.6972300000
H      5.3433300000     2.9553500000    21.1715300000
O     13.1062542000     6.1659249000    21.1310300000
H     13.4153842000     7.0774909000    20.9458300000
H     12.1323942000     6.1365549000    20.9844300000
O      0.8231958000     3.1666549000    17.4341300000
H      1.2171958000     4.0421349000    17.0535300000
H     -0.0321042000     3.3646049000    17.9254300000
O      3.8281042000     5.6263149000    20.5094300000
H      4.5141042000     5.0900149000    19.9382300000
H      2.9793042000     5.0328449000    20.5293300000
O      6.9198958000     4.7521147000    18.2528300000
H      6.3846958000     4.1292147000    18.8663300000
H      7.6501958000     5.2411147000    18.8073300000
O     14.1569000000     3.6717749000    20.0337300000
H     14.7103000000     3.5490549000    20.8658300000
H     13.6557000000     4.5225749000    20.1847300000
O     10.6527000000     1.0291051000    22.1189300000
H     10.2169000000     0.3515651000    22.7071300000
H      9.7885300000     1.5490251000    21.7660300000
O      2.8050900000     1.2157700000    16.9518300000
H      2.4724900000     0.2902540000    16.6897300000
H      2.0266200000     1.8765300000    17.0097300000
O     11.9932000000     6.8428569000    18.1783300000
H     12.3884000000     7.3363339000    18.9844300000
H     11.6272000000     7.4695849000    17.4852300000
O     13.1107542000     1.1637098000    20.1748300000
H     13.5176542000     2.0504098000    19.8605300000
H     12.5456242000     1.4920098000    20.9697300000
O     13.5521000000     5.6277149000    23.7403300000
H     13.8314000000     4.6507549000    23.8343300000
H     13.3470000000     5.8612049000    22.7646300000
